Differential/diff_ivlbc_7.txt
24 seconds 
<gurobi.Var p0_0_3 (value 1.0)>
<gurobi.Var p0_0_6 (value 1.0)>
<gurobi.Var p0_0_12 (value 1.0)>
<gurobi.Var p0_1_15 (value 1.0)>
<gurobi.Var p0_2_8 (value 1.0)>
<gurobi.Var p0_2_10 (value 1.0)>
<gurobi.Var p0_2_11 (value 1.0)>
<gurobi.Var p0_3_0 (value 1.0)>
<gurobi.Var p0_3_1 (value 1.0)>
<gurobi.Var p0_3_3 (value 1.0)>
<gurobi.Var p0_3_4 (value 1.0)>
<gurobi.Var p0_3_6 (value 1.0)>
<gurobi.Var p0_3_7 (value 1.0)>
<gurobi.Var p0_3_9 (value 1.0)>
<gurobi.Var p0_3_10 (value 1.0)>
<gurobi.Var p0_3_11 (value 1.0)>
<gurobi.Var p0_4_3 (value 1.0)>
<gurobi.Var p0_4_6 (value 1.0)>
<gurobi.Var p0_4_12 (value 1.0)>
<gurobi.Var p0_5_15 (value 1.0)>
<gurobi.Var p0_6_8 (value 1.0)>
<gurobi.Var p0_6_10 (value 1.0)>
<gurobi.Var p0_6_11 (value 1.0)>
<gurobi.Var x0_15 (value 1.0)>
<gurobi.Var x0_27 (value 1.0)>
<gurobi.Var x0_51 (value 1.0)>
<gurobi.Var A0_3 (value 1.0)>
<gurobi.Var y0_14 (value 1.0)>
<gurobi.Var A0_6 (value 1.0)>
<gurobi.Var y0_26 (value 1.0)>
<gurobi.Var A0_12 (value 1.0)>
<gurobi.Var y0_50 (value 1.0)>
<gurobi.Var z0_50 (value 1.0)>
<gurobi.Var z0_54 (value 1.0)>
<gurobi.Var z0_58 (value 1.0)>
<gurobi.Var d0_101 (value 1.0)>
<gurobi.Var d0_109 (value 1.0)>
<gurobi.Var d0_117 (value 1.0)>
<gurobi.Var x1_62 (value 1.0)>
<gurobi.Var d0_124 (value 1.0)>
<gurobi.Var A1_15 (value 1.0)>
<gurobi.Var y1_63 (value 1.0)>
<gurobi.Var z1_39 (value 1.0)>
<gurobi.Var x2_35 (value 1.0)>
<gurobi.Var d1_71 (value 1.0)>
<gurobi.Var x2_43 (value 1.0)>
<gurobi.Var d1_87 (value 1.0)>
<gurobi.Var x2_47 (value 1.0)>
<gurobi.Var d1_95 (value 1.0)>
<gurobi.Var A2_8 (value 1.0)>
<gurobi.Var y2_34 (value 1.0)>
<gurobi.Var A2_10 (value 1.0)>
<gurobi.Var y2_42 (value 1.0)>
<gurobi.Var A2_11 (value 1.0)>
<gurobi.Var y2_46 (value 1.0)>
<gurobi.Var z2_10 (value 1.0)>
<gurobi.Var z2_22 (value 1.0)>
<gurobi.Var z2_34 (value 1.0)>
<gurobi.Var x3_2 (value 1.0)>
<gurobi.Var d2_5 (value 1.0)>
<gurobi.Var x3_6 (value 1.0)>
<gurobi.Var d2_13 (value 1.0)>
<gurobi.Var x3_14 (value 1.0)>
<gurobi.Var d2_29 (value 1.0)>
<gurobi.Var x3_18 (value 1.0)>
<gurobi.Var d2_37 (value 1.0)>
<gurobi.Var x3_26 (value 1.0)>
<gurobi.Var d2_53 (value 1.0)>
<gurobi.Var x3_30 (value 1.0)>
<gurobi.Var d2_61 (value 1.0)>
<gurobi.Var x3_38 (value 1.0)>
<gurobi.Var d2_77 (value 1.0)>
<gurobi.Var x3_42 (value 1.0)>
<gurobi.Var d2_85 (value 1.0)>
<gurobi.Var x3_46 (value 1.0)>
<gurobi.Var d2_93 (value 1.0)>
<gurobi.Var A3_0 (value 1.0)>
<gurobi.Var y3_3 (value 1.0)>
<gurobi.Var A3_1 (value 1.0)>
<gurobi.Var y3_7 (value 1.0)>
<gurobi.Var A3_3 (value 1.0)>
<gurobi.Var y3_15 (value 1.0)>
<gurobi.Var A3_4 (value 1.0)>
<gurobi.Var y3_19 (value 1.0)>
<gurobi.Var A3_6 (value 1.0)>
<gurobi.Var y3_27 (value 1.0)>
<gurobi.Var A3_7 (value 1.0)>
<gurobi.Var y3_31 (value 1.0)>
<gurobi.Var A3_9 (value 1.0)>
<gurobi.Var y3_39 (value 1.0)>
<gurobi.Var A3_10 (value 1.0)>
<gurobi.Var y3_43 (value 1.0)>
<gurobi.Var A3_11 (value 1.0)>
<gurobi.Var y3_47 (value 1.0)>
<gurobi.Var z3_3 (value 1.0)>
<gurobi.Var z3_7 (value 1.0)>
<gurobi.Var z3_11 (value 1.0)>
<gurobi.Var z3_19 (value 1.0)>
<gurobi.Var z3_23 (value 1.0)>
<gurobi.Var z3_31 (value 1.0)>
<gurobi.Var z3_55 (value 1.0)>
<gurobi.Var z3_59 (value 1.0)>
<gurobi.Var z3_63 (value 1.0)>
<gurobi.Var d3_7 (value 1.0)>
<gurobi.Var d3_15 (value 1.0)>
<gurobi.Var d3_23 (value 1.0)>
<gurobi.Var x4_15 (value 1.0)>
<gurobi.Var d3_30 (value 1.0)>
<gurobi.Var d3_39 (value 1.0)>
<gurobi.Var d3_47 (value 1.0)>
<gurobi.Var x4_27 (value 1.0)>
<gurobi.Var d3_54 (value 1.0)>
<gurobi.Var d3_63 (value 1.0)>
<gurobi.Var x4_51 (value 1.0)>
<gurobi.Var d3_102 (value 1.0)>
<gurobi.Var d3_111 (value 1.0)>
<gurobi.Var d3_119 (value 1.0)>
<gurobi.Var d3_127 (value 1.0)>
<gurobi.Var A4_3 (value 1.0)>
<gurobi.Var y4_14 (value 1.0)>
<gurobi.Var A4_6 (value 1.0)>
<gurobi.Var y4_26 (value 1.0)>
<gurobi.Var A4_12 (value 1.0)>
<gurobi.Var y4_50 (value 1.0)>
<gurobi.Var z4_50 (value 1.0)>
<gurobi.Var z4_54 (value 1.0)>
<gurobi.Var z4_58 (value 1.0)>
<gurobi.Var d4_101 (value 1.0)>
<gurobi.Var d4_109 (value 1.0)>
<gurobi.Var d4_117 (value 1.0)>
<gurobi.Var x5_62 (value 1.0)>
<gurobi.Var d4_124 (value 1.0)>
<gurobi.Var A5_15 (value 1.0)>
<gurobi.Var y5_63 (value 1.0)>
<gurobi.Var z5_39 (value 1.0)>
<gurobi.Var x6_35 (value 1.0)>
<gurobi.Var d5_71 (value 1.0)>
<gurobi.Var x6_43 (value 1.0)>
<gurobi.Var d5_87 (value 1.0)>
<gurobi.Var x6_47 (value 1.0)>
<gurobi.Var d5_95 (value 1.0)>
<gurobi.Var A6_8 (value 1.0)>
<gurobi.Var y6_34 (value 1.0)>
<gurobi.Var A6_10 (value 1.0)>
<gurobi.Var y6_42 (value 1.0)>
<gurobi.Var A6_11 (value 1.0)>
<gurobi.Var y6_46 (value 1.0)>
<gurobi.Var z6_10 (value 1.0)>
<gurobi.Var z6_22 (value 1.0)>
<gurobi.Var z6_34 (value 1.0)>
<gurobi.Var x7_2 (value 1.0)>
<gurobi.Var d6_5 (value 1.0)>
<gurobi.Var x7_6 (value 1.0)>
<gurobi.Var d6_13 (value 1.0)>
<gurobi.Var x7_14 (value 1.0)>
<gurobi.Var d6_29 (value 1.0)>
<gurobi.Var x7_18 (value 1.0)>
<gurobi.Var d6_37 (value 1.0)>
<gurobi.Var x7_26 (value 1.0)>
<gurobi.Var d6_53 (value 1.0)>
<gurobi.Var x7_30 (value 1.0)>
<gurobi.Var d6_61 (value 1.0)>
<gurobi.Var x7_38 (value 1.0)>
<gurobi.Var d6_77 (value 1.0)>
<gurobi.Var x7_42 (value 1.0)>
<gurobi.Var d6_85 (value 1.0)>
<gurobi.Var x7_46 (value 1.0)>
<gurobi.Var d6_93 (value 1.0)>
